NAME: CMT2_7
TYPE: CVRP
COMMENT: 835.26 - Cluster Nr.7
DIMENSION: 8
CAPACITY: 140
EDGE_WEIGHT_TYPE: EUC_2D
NODE_COORD_TYPE: TWOD_COORDS
NODE_COORD_SECTION: 
1 50 30
6 55 34
3 55 45
4 62 35
8 54 38
7 50 40
2 51 42
5 40 40
DEPOT_SECTION: 
5
-1
DEMAND_SECTION: 
3 16
2 27
8 19
7 19
4 12
6 17
1 21
5 0
EOF
